p cnf 73 24
39 -43 0
39 -41 0
39 -44 0
10 -42 0
-10 35 37 42 0
9 37 38 41 0
-9 35 36 40 0
9 -10 37 44 0
-9 -10 35 43 0
-36 -45 0
-38 -41 0
-36 -40 0
-35 -43 0
-35 -42 0
-37 -44 0
10 -44 0
10 -43 0
-37 -42 0
-37 -41 0
9 -40 0
-9 -44 0
9 -43 0
-9 -41 0
39 -40 0
